letting n = 9
letting board=[[3, 3, 3, 3, 3, 3, 8, 8, 8], [3, 3, 3, 3, 3, 3, 8, 0, 8], [3, 3, 3, 3, 3, 3, 0, 0, 0], [3, 3, 3, 3, 3, 3, 2, 2, 0], [5, 4, 4, 4, 3, 3, 2, 2, 2], [5, 1, 7, 4, 3, 3, 3, 3, 3], [5, 1, 7, 4, 3, 3, 6, 3, 3], [5, 1, 7, 7, 3, 6, 6, 6, 3], [5, 1, 1, 7, 3, 3, 6, 3, 3]]
